; --full-saturate-quant --inst-when=full-last-call --inst-no-entail --term-db-mode=relevant --random-seed=1 --lang=smt2 --tlimit 638
;(set-option :produce-unsat-cores true)
(set-logic ALL_SUPPORTED)
(declare-sort A$ 0)
(declare-sort Nat$ 0)
(declare-sort A_set$ 0)
(declare-sort A_bool_fun$ 0)
(declare-sort A_llist_bool_fun$ 0)
(declare-sort A_llist_a_llist_fun$ 0)
(declare-sort A_llist_a_llist_bool_fun_fun$ 0)
(declare-codatatypes () ((A_llist$ (lNil$) (lCons$ (lhd$ A$) (ltl$ A_llist$)))))
(declare-datatypes () ((Nat_option$ (none$) (some$ (the$ Nat$)))
  (Enat$ (abs_enat$ (rep_enat$ Nat_option$)))))
(declare-fun p$ () A_bool_fun$)
(declare-fun xs$ () A_llist$)
(declare-fun less$ (Enat$ Enat$) Bool)
(declare-fun lset$ (A_llist$) A_set$)
(declare-fun lnull$ (A_llist$) Bool)
(declare-fun member$ (A$ A_set$) Bool)
(declare-fun fun_app$ (A_llist_a_llist_fun$ A_llist$) A_llist$)
(declare-fun less_eq$ (Enat$ Enat$) Bool)
(declare-fun llength$ (A_llist$) Enat$)
(declare-fun lprefix$ () A_llist_a_llist_bool_fun_fun$)
(declare-fun fun_app$a (A_llist_bool_fun$ A_llist$) Bool)
(declare-fun fun_app$b (A_llist_a_llist_bool_fun_fun$ A_llist$) A_llist_bool_fun$)
(declare-fun fun_app$c (A_bool_fun$ A$) Bool)
(declare-fun monotone$ (A_llist_a_llist_bool_fun_fun$ A_llist_a_llist_bool_fun_fun$ A_llist_a_llist_fun$) Bool)
(declare-fun ltakeWhile$ (A_bool_fun$) A_llist_a_llist_fun$)
(assert (! (not (not (= (fun_app$ (ltakeWhile$ p$) xs$) xs$))) :named a0))
(assert (! (less$ (llength$ (fun_app$ (ltakeWhile$ p$) xs$)) (llength$ xs$)) :named a1))
(assert (! (forall ((?v0 A_bool_fun$) (?v1 A_llist$)) (= (= (llength$ (fun_app$ (ltakeWhile$ ?v0) ?v1)) (llength$ ?v1)) (= (fun_app$ (ltakeWhile$ ?v0) ?v1) ?v1))) :named a2))
(assert (! (forall ((?v0 A_bool_fun$)) (! (= (fun_app$ (ltakeWhile$ ?v0) lNil$) lNil$) :pattern ((ltakeWhile$ ?v0)))) :named a3))
(assert (! (forall ((?v0 A_bool_fun$) (?v1 A_llist$)) (fun_app$a (fun_app$b lprefix$ (fun_app$ (ltakeWhile$ ?v0) ?v1)) ?v1)) :named a4))
(assert (! (forall ((?v0 A_llist$) (?v1 A_bool_fun$)) (! (=> (forall ((?v2 A$)) (=> (member$ ?v2 (lset$ ?v0)) (fun_app$c ?v1 ?v2))) (= (fun_app$ (ltakeWhile$ ?v1) ?v0) ?v0)) :pattern ((fun_app$ (ltakeWhile$ ?v1) ?v0)))) :named a5))
(assert (! (forall ((?v0 A$) (?v1 A_bool_fun$) (?v2 A_llist$)) (=> (member$ ?v0 (lset$ (fun_app$ (ltakeWhile$ ?v1) ?v2))) (and (member$ ?v0 (lset$ ?v2)) (fun_app$c ?v1 ?v0)))) :named a6))
(assert (! (forall ((?v0 A_bool_fun$) (?v1 A_llist$)) (less_eq$ (llength$ (fun_app$ (ltakeWhile$ ?v0) ?v1)) (llength$ ?v1))) :named a7))
(assert (! (forall ((?v0 A_bool_fun$) (?v1 A$) (?v2 A_llist$)) (! (= (fun_app$ (ltakeWhile$ ?v0) (lCons$ ?v1 ?v2)) (ite (fun_app$c ?v0 ?v1) (lCons$ ?v1 (fun_app$ (ltakeWhile$ ?v0) ?v2)) lNil$)) :pattern ((fun_app$ (ltakeWhile$ ?v0) (lCons$ ?v1 ?v2))))) :named a8))
(assert (! (forall ((?v0 A_bool_fun$) (?v1 A_llist$)) (= (not (lnull$ (fun_app$ (ltakeWhile$ ?v0) ?v1))) (and (not (lnull$ ?v1)) (fun_app$c ?v0 (lhd$ ?v1))))) :named a9))
(assert (! (forall ((?v0 A_bool_fun$) (?v1 A_llist$)) (= (lnull$ (fun_app$ (ltakeWhile$ ?v0) ?v1)) (or (lnull$ ?v1) (not (fun_app$c ?v0 (lhd$ ?v1)))))) :named a10))
(assert (! (forall ((?v0 A_bool_fun$) (?v1 A_llist$)) (= (lnull$ (fun_app$ (ltakeWhile$ ?v0) ?v1)) (=> (not (lnull$ ?v1)) (not (fun_app$c ?v0 (lhd$ ?v1)))))) :named a11))
(assert (! (forall ((?v0 A_bool_fun$) (?v1 A_llist$)) (= (= (fun_app$ (ltakeWhile$ ?v0) ?v1) lNil$) (=> (not (= ?v1 lNil$)) (not (fun_app$c ?v0 (lhd$ ?v1)))))) :named a12))
(assert (! (forall ((?v0 A_bool_fun$)) (monotone$ lprefix$ lprefix$ (ltakeWhile$ ?v0))) :named a13))
(assert (! (forall ((?v0 A_llist$)) (fun_app$a (fun_app$b lprefix$ ?v0) ?v0)) :named a14))
(assert (! (forall ((?v0 A_llist$)) (fun_app$a (fun_app$b lprefix$ ?v0) ?v0)) :named a15))
(assert (! (forall ((?v0 A$) (?v1 A_llist$) (?v2 A$) (?v3 A_llist$)) (= (= (lCons$ ?v0 ?v1) (lCons$ ?v2 ?v3)) (and (= ?v0 ?v2) (= ?v1 ?v3)))) :named a16))
(assert (! (forall ((?v0 A$) (?v1 A_llist$) (?v2 A$) (?v3 A_llist$)) (! (= (fun_app$a (fun_app$b lprefix$ (lCons$ ?v0 ?v1)) (lCons$ ?v2 ?v3)) (and (= ?v0 ?v2) (fun_app$a (fun_app$b lprefix$ ?v1) ?v3))) :pattern ((fun_app$a (fun_app$b lprefix$ (lCons$ ?v0 ?v1)) (lCons$ ?v2 ?v3))))) :named a17))
(check-sat)
;(get-unsat-core)
